1219
3441
4111
2016
3925
1955
3399
2664
4081
3779
3982
2017
509
717
1360
4119
1646
254
3874
3687
3632
2076
1708
2107
946
2692
4086
283
2521
3116
2388
3720
3328
554
2008
3079
3842
709
3625
2930
3002
4172
1686
1225
1094
475
2022
1745
1602
2652
2704
2858
804
1934
832
997
2271
3346
2798
1528
2408
1671
273
926
3103
3490
3804
2027
3932
3812
2986
2680
3614
936
255
3794
2983
1496
1725
446
1674
3826
1069
3804
2953
3477
1064
2199
4098
4209
3613
167
876
2098
3555
4209
452
646
3453
3299
